\ Model Inv_facility
\ LP format - for model browsing. Use MPS format to capture full model detail.
Minimize
  C0 + C1 + C2 + C3 + C4 + C5 + C7 + C9 + C10 + C12 + C14 + C15 + C17 + C19
   + C20 + C21 + C22 + C23 + C24 + C25 + C27 + C29 + C30 + C32 + C34 + C35
   + C37 + C39
Subject To
 R0: C2 + C3 + C12 + C14 + C17 + C19 - C22 - C23 - C32 - C34 - C37 - C39
   = 1
 R1: C0 + C4 + C5 + C6 + C7 - C20 - C24 - C25 - C26 - C27 >= -18
 R2: C0 + C1 + C4 + C5 + C6 + C11 - C20 - C21 - C24 - C25 - C26 - C31
   >= -56
 R3: C0 + C2 + C4 + C5 + C6 + C15 - C20 - C22 - C24 - C25 - C26 - C35
   >= -30
 R4: C0 + C3 + C4 + C5 + C6 + C19 - C20 - C23 - C24 - C25 - C26 - C39
   >= -27
 R5: C0 + C1 + C4 + C5 + C7 + C10 - C20 - C21 - C24 - C25 - C27 - C30
   >= -2
 R6: C0 + C1 + C4 + C5 + C10 + C11 - C20 - C21 - C24 - C25 - C30 - C31
   >= -30
 R7: C0 + C1 + C2 + C4 + C5 + C10 + C15 - C20 - C21 - C22 - C24 - C25 - C30
   - C35 >= -14
 R8: C0 + C1 + C3 + C4 + C5 + C10 + C19 - C20 - C21 - C23 - C24 - C25 - C30
   - C39 >= -11
 R9: C0 + C2 + C4 + C5 + C7 + C14 - C20 - C22 - C24 - C25 - C27 - C34
   >= -1
 R10: C0 + C1 + C2 + C4 + C5 + C11 + C14 - C20 - C21 - C22 - C24 - C25
   - C31 - C34 >= -39
 R11: C0 + C2 + C4 + C5 + C14 + C15 - C20 - C22 - C24 - C25 - C34 - C35
   >= -3
 R12: C0 + C2 + C3 + C4 + C5 + C14 + C19 - C20 - C22 - C23 - C24 - C25
   - C34 - C39 >= -10
 R13: C0 + C3 + C4 + C5 + C7 + C18 - C20 - C23 - C24 - C25 - C27 - C38
   >= -28
 R14: C0 + C1 + C3 + C4 + C5 + C11 + C18 - C20 - C21 - C23 - C24 - C25
   - C31 - C38 >= -66
 R15: C0 + C2 + C3 + C4 + C5 + C15 + C18 - C20 - C22 - C23 - C24 - C25
   - C35 - C38 >= -40
 R16: C0 + C3 + C4 + C5 + C18 + C19 - C20 - C23 - C24 - C25 - C38 - C39
   >= -27
 R17: C0 + C1 + C4 + C6 + C7 + C9 - C20 - C21 - C24 - C26 - C27 - C29
   >= -26
 R18: C0 + C1 + C4 + C6 + C9 + C11 - C20 - C21 - C24 - C26 - C29 - C31
   >= -54
 R19: C0 + C1 + C2 + C4 + C6 + C9 + C15 - C20 - C21 - C22 - C24 - C26 - C29
   - C35 >= -38
 R20: C0 + C1 + C3 + C4 + C6 + C9 + C19 - C20 - C21 - C23 - C24 - C26 - C29
   - C39 >= -35
 R21: C0 + C1 + C4 + C7 + C9 + C10 - C20 - C21 - C24 - C27 - C29 - C30
   >= 0
 R22: C0 + C1 + C4 + C9 + C10 + C11 - C20 - C21 - C24 - C29 - C30 - C31
   >= -28
 R23: C0 + C1 + C2 + C4 + C9 + C10 + C15 - C20 - C21 - C22 - C24 - C29
   - C30 - C35 >= -12
 R24: C0 + C1 + C3 + C4 + C9 + C10 + C19 - C20 - C21 - C23 - C24 - C29
   - C30 - C39 >= -9
 R25: C0 + C1 + C2 + C4 + C7 + C9 + C14 - C20 - C21 - C22 - C24 - C27 - C29
   - C34 >= -9
 R26: C0 + C1 + C2 + C4 + C9 + C11 + C14 - C20 - C21 - C22 - C24 - C29
   - C31 - C34 >= -37
 R27: C0 + C1 + C2 + C4 + C9 + C14 + C15 - C20 - C21 - C22 - C24 - C29
   - C34 - C35 >= -11
 R28: C0 + C1 + C2 + C3 + C4 + C9 + C14 + C19 - C20 - C21 - C22 - C23 - C24
   - C29 - C34 - C39 >= -18
 R29: C0 + C1 + C3 + C4 + C7 + C9 + C18 - C20 - C21 - C23 - C24 - C27 - C29
   - C38 >= -36
 R30: C0 + C1 + C3 + C4 + C9 + C11 + C18 - C20 - C21 - C23 - C24 - C29
   - C31 - C38 >= -64
 R31: C0 + C1 + C2 + C3 + C4 + C9 + C15 + C18 - C20 - C21 - C22 - C23 - C24
   - C29 - C35 - C38 >= -48
 R32: C0 + C1 + C3 + C4 + C9 + C18 + C19 - C20 - C21 - C23 - C24 - C29
   - C38 - C39 >= -35
 R33: C0 + C2 + C4 + C6 + C7 + C13 - C20 - C22 - C24 - C26 - C27 - C33
   >= -55
 R34: C0 + C1 + C2 + C4 + C6 + C11 + C13 - C20 - C21 - C22 - C24 - C26
   - C31 - C33 >= -93
 R35: C0 + C2 + C4 + C6 + C13 + C15 - C20 - C22 - C24 - C26 - C33 - C35
   >= -57
 R36: C0 + C2 + C3 + C4 + C6 + C13 + C19 - C20 - C22 - C23 - C24 - C26
   - C33 - C39 >= -64
 R37: C0 + C1 + C2 + C4 + C7 + C10 + C13 - C20 - C21 - C22 - C24 - C27
   - C30 - C33 >= -39
 R38: C0 + C1 + C2 + C4 + C10 + C11 + C13 - C20 - C21 - C22 - C24 - C30
   - C31 - C33 >= -67
 R39: C0 + C1 + C2 + C4 + C10 + C13 + C15 - C20 - C21 - C22 - C24 - C30
   - C33 - C35 >= -41
 R40: C0 + C1 + C2 + C3 + C4 + C10 + C13 + C19 - C20 - C21 - C22 - C23
   - C24 - C30 - C33 - C39 >= -48
 R41: C0 + C2 + C4 + C7 + C13 + C14 - C20 - C22 - C24 - C27 - C33 - C34
   >= -28
 R42: C0 + C1 + C2 + C4 + C11 + C13 + C14 - C20 - C21 - C22 - C24 - C31
   - C33 - C34 >= -66
 R43: C0 + C2 + C4 + C13 + C14 + C15 - C20 - C22 - C24 - C33 - C34 - C35
   >= -30
 R44: C0 + C2 + C3 + C4 + C13 + C14 + C19 - C20 - C22 - C23 - C24 - C33
   - C34 - C39 >= -37
 R45: C0 + C2 + C3 + C4 + C7 + C13 + C18 - C20 - C22 - C23 - C24 - C27
   - C33 - C38 >= -65
 R46: C0 + C1 + C2 + C3 + C4 + C11 + C13 + C18 - C20 - C21 - C22 - C23
   - C24 - C31 - C33 - C38 >= -103
 R47: C0 + C2 + C3 + C4 + C13 + C15 + C18 - C20 - C22 - C23 - C24 - C33
   - C35 - C38 >= -67
 R48: C0 + C2 + C3 + C4 + C13 + C18 + C19 - C20 - C22 - C23 - C24 - C33
   - C38 - C39 >= -64
 R49: C0 + C3 + C4 + C6 + C7 + C17 - C20 - C23 - C24 - C26 - C27 - C37
   >= -27
 R50: C0 + C1 + C3 + C4 + C6 + C11 + C17 - C20 - C21 - C23 - C24 - C26
   - C31 - C37 >= -65
 R51: C0 + C2 + C3 + C4 + C6 + C15 + C17 - C20 - C22 - C23 - C24 - C26
   - C35 - C37 >= -39
 R52: C0 + C3 + C4 + C6 + C17 + C19 - C20 - C23 - C24 - C26 - C37 - C39
   >= -26
 R53: C0 + C1 + C3 + C4 + C7 + C10 + C17 - C20 - C21 - C23 - C24 - C27
   - C30 - C37 >= -11
 R54: C0 + C1 + C3 + C4 + C10 + C11 + C17 - C20 - C21 - C23 - C24 - C30
   - C31 - C37 >= -39
 R55: C0 + C1 + C2 + C3 + C4 + C10 + C15 + C17 - C20 - C21 - C22 - C23
   - C24 - C30 - C35 - C37 >= -23
 R56: C0 + C1 + C3 + C4 + C10 + C17 + C19 - C20 - C21 - C23 - C24 - C30
   - C37 - C39 >= -10
 R57: C0 + C2 + C3 + C4 + C7 + C14 + C17 - C20 - C22 - C23 - C24 - C27
   - C34 - C37 >= -10
 R58: C0 + C1 + C2 + C3 + C4 + C11 + C14 + C17 - C20 - C21 - C22 - C23
   - C24 - C31 - C34 - C37 >= -48
 R59: C0 + C2 + C3 + C4 + C14 + C15 + C17 - C20 - C22 - C23 - C24 - C34
   - C35 - C37 >= -12
 R60: C0 + C2 + C3 + C4 + C14 + C17 + C19 - C20 - C22 - C23 - C24 - C34
   - C37 - C39 >= -9
 R61: C0 + C3 + C4 + C7 + C17 + C18 - C20 - C23 - C24 - C27 - C37 - C38
   >= -27
 R62: C0 + C1 + C3 + C4 + C11 + C17 + C18 - C20 - C21 - C23 - C24 - C31
   - C37 - C38 >= -65
 R63: C0 + C2 + C3 + C4 + C15 + C17 + C18 - C20 - C22 - C23 - C24 - C35
   - C37 - C38 >= -39
 R64: C0 + C3 + C4 + C17 + C18 + C19 - C20 - C23 - C24 - C37 - C38 - C39
   >= -26
 R65: C0 + C1 + C5 + C6 + C7 + C8 - C20 - C21 - C25 - C26 - C27 - C28
   >= -55
 R66: C0 + C1 + C5 + C6 + C8 + C11 - C20 - C21 - C25 - C26 - C28 - C31
   >= -83
 R67: C0 + C1 + C2 + C5 + C6 + C8 + C15 - C20 - C21 - C22 - C25 - C26 - C28
   - C35 >= -67
 R68: C0 + C1 + C3 + C5 + C6 + C8 + C19 - C20 - C21 - C23 - C25 - C26 - C28
   - C39 >= -64
 R69: C0 + C1 + C5 + C7 + C8 + C10 - C20 - C21 - C25 - C27 - C28 - C30
   >= -29
 R70: C0 + C1 + C5 + C8 + C10 + C11 - C20 - C21 - C25 - C28 - C30 - C31
   >= -57
 R71: C0 + C1 + C2 + C5 + C8 + C10 + C15 - C20 - C21 - C22 - C25 - C28
   - C30 - C35 >= -41
 R72: C0 + C1 + C3 + C5 + C8 + C10 + C19 - C20 - C21 - C23 - C25 - C28
   - C30 - C39 >= -38
 R73: C0 + C1 + C2 + C5 + C7 + C8 + C14 - C20 - C21 - C22 - C25 - C27 - C28
   - C34 >= -38
 R74: C0 + C1 + C2 + C5 + C8 + C11 + C14 - C20 - C21 - C22 - C25 - C28
   - C31 - C34 >= -66
 R75: C0 + C1 + C2 + C5 + C8 + C14 + C15 - C20 - C21 - C22 - C25 - C28
   - C34 - C35 >= -40
 R76: C0 + C1 + C2 + C3 + C5 + C8 + C14 + C19 - C20 - C21 - C22 - C23 - C25
   - C28 - C34 - C39 >= -47
 R77: C0 + C1 + C3 + C5 + C7 + C8 + C18 - C20 - C21 - C23 - C25 - C27 - C28
   - C38 >= -65
 R78: C0 + C1 + C3 + C5 + C8 + C11 + C18 - C20 - C21 - C23 - C25 - C28
   - C31 - C38 >= -93
 R79: C0 + C1 + C2 + C3 + C5 + C8 + C15 + C18 - C20 - C21 - C22 - C23 - C25
   - C28 - C35 - C38 >= -77
 R80: C0 + C1 + C3 + C5 + C8 + C18 + C19 - C20 - C21 - C23 - C25 - C28
   - C38 - C39 >= -64
 R81: C0 + C1 + C6 + C7 + C8 + C9 - C20 - C21 - C26 - C27 - C28 - C29
   >= -53
 R82: C0 + C1 + C6 + C8 + C9 + C11 - C20 - C21 - C26 - C28 - C29 - C31
   >= -81
 R83: C0 + C1 + C2 + C6 + C8 + C9 + C15 - C20 - C21 - C22 - C26 - C28 - C29
   - C35 >= -65
 R84: C0 + C1 + C3 + C6 + C8 + C9 + C19 - C20 - C21 - C23 - C26 - C28 - C29
   - C39 >= -62
 R85: C0 + C1 + C7 + C8 + C9 + C10 - C20 - C21 - C27 - C28 - C29 - C30
   >= -27
 R86: C1 + C8 + C9 + C10 + C11 - C21 - C28 - C29 - C30 - C31 >= -45
 R87: C1 + C2 + C8 + C9 + C10 + C15 - C21 - C22 - C28 - C29 - C30 - C35
   >= -29
 R88: C1 + C3 + C8 + C9 + C10 + C19 - C21 - C23 - C28 - C29 - C30 - C39
   >= -26
 R89: C0 + C1 + C2 + C7 + C8 + C9 + C14 - C20 - C21 - C22 - C27 - C28 - C29
   - C34 >= -36
 R90: C1 + C2 + C8 + C9 + C11 + C14 - C21 - C22 - C28 - C29 - C31 - C34
   >= -54
 R91: C1 + C2 + C8 + C9 + C14 + C15 - C21 - C22 - C28 - C29 - C34 - C35
   >= -28
 R92: C1 + C2 + C3 + C8 + C9 + C14 + C19 - C21 - C22 - C23 - C28 - C29
   - C34 - C39 >= -35
 R93: C0 + C1 + C3 + C7 + C8 + C9 + C18 - C20 - C21 - C23 - C27 - C28 - C29
   - C38 >= -63
 R94: C1 + C3 + C8 + C9 + C11 + C18 - C21 - C23 - C28 - C29 - C31 - C38
   >= -81
 R95: C1 + C2 + C3 + C8 + C9 + C15 + C18 - C21 - C22 - C23 - C28 - C29
   - C35 - C38 >= -65
 R96: C1 + C3 + C8 + C9 + C18 + C19 - C21 - C23 - C28 - C29 - C38 - C39
   >= -52
 R97: C0 + C1 + C2 + C6 + C7 + C8 + C13 - C20 - C21 - C22 - C26 - C27 - C28
   - C33 >= -92
 R98: C0 + C1 + C2 + C6 + C8 + C11 + C13 - C20 - C21 - C22 - C26 - C28
   - C31 - C33 >= -120
 R99: C0 + C1 + C2 + C6 + C8 + C13 + C15 - C20 - C21 - C22 - C26 - C28
   - C33 - C35 >= -94
 R100: C0 + C1 + C2 + C3 + C6 + C8 + C13 + C19 - C20 - C21 - C22 - C23
   - C26 - C28 - C33 - C39 >= -101
 R101: C0 + C1 + C2 + C7 + C8 + C10 + C13 - C20 - C21 - C22 - C27 - C28
   - C30 - C33 >= -66
 R102: C1 + C2 + C8 + C10 + C11 + C13 - C21 - C22 - C28 - C30 - C31 - C33
   >= -84
 R103: C1 + C2 + C8 + C10 + C13 + C15 - C21 - C22 - C28 - C30 - C33 - C35
   >= -58
 R104: C1 + C2 + C3 + C8 + C10 + C13 + C19 - C21 - C22 - C23 - C28 - C30
   - C33 - C39 >= -65
 R105: C0 + C1 + C2 + C7 + C8 + C13 + C14 - C20 - C21 - C22 - C27 - C28
   - C33 - C34 >= -65
 R106: C1 + C2 + C8 + C11 + C13 + C14 - C21 - C22 - C28 - C31 - C33 - C34
   >= -83
 R107: C1 + C2 + C8 + C13 + C14 + C15 - C21 - C22 - C28 - C33 - C34 - C35
   >= -57
 R108: C1 + C2 + C3 + C8 + C13 + C14 + C19 - C21 - C22 - C23 - C28 - C33
   - C34 - C39 >= -64
 R109: C0 + C1 + C2 + C3 + C7 + C8 + C13 + C18 - C20 - C21 - C22 - C23
   - C27 - C28 - C33 - C38 >= -102
 R110: C1 + C2 + C3 + C8 + C11 + C13 + C18 - C21 - C22 - C23 - C28 - C31
   - C33 - C38 >= -120
 R111: C1 + C2 + C3 + C8 + C13 + C15 + C18 - C21 - C22 - C23 - C28 - C33
   - C35 - C38 >= -94
 R112: C1 + C2 + C3 + C8 + C13 + C18 + C19 - C21 - C22 - C23 - C28 - C33
   - C38 - C39 >= -91
 R113: C0 + C1 + C3 + C6 + C7 + C8 + C17 - C20 - C21 - C23 - C26 - C27
   - C28 - C37 >= -64
 R114: C0 + C1 + C3 + C6 + C8 + C11 + C17 - C20 - C21 - C23 - C26 - C28
   - C31 - C37 >= -92
 R115: C0 + C1 + C2 + C3 + C6 + C8 + C15 + C17 - C20 - C21 - C22 - C23
   - C26 - C28 - C35 - C37 >= -76
 R116: C0 + C1 + C3 + C6 + C8 + C17 + C19 - C20 - C21 - C23 - C26 - C28
   - C37 - C39 >= -63
 R117: C0 + C1 + C3 + C7 + C8 + C10 + C17 - C20 - C21 - C23 - C27 - C28
   - C30 - C37 >= -38
 R118: C1 + C3 + C8 + C10 + C11 + C17 - C21 - C23 - C28 - C30 - C31 - C37
   >= -56
 R119: C1 + C2 + C3 + C8 + C10 + C15 + C17 - C21 - C22 - C23 - C28 - C30
   - C35 - C37 >= -40
 R120: C1 + C3 + C8 + C10 + C17 + C19 - C21 - C23 - C28 - C30 - C37 - C39
   >= -27
 R121: C0 + C1 + C2 + C3 + C7 + C8 + C14 + C17 - C20 - C21 - C22 - C23
   - C27 - C28 - C34 - C37 >= -47
 R122: C1 + C2 + C3 + C8 + C11 + C14 + C17 - C21 - C22 - C23 - C28 - C31
   - C34 - C37 >= -65
 R123: C1 + C2 + C3 + C8 + C14 + C15 + C17 - C21 - C22 - C23 - C28 - C34
   - C35 - C37 >= -39
 R124: C1 + C2 + C3 + C8 + C14 + C17 + C19 - C21 - C22 - C23 - C28 - C34
   - C37 - C39 >= -36
 R125: C0 + C1 + C3 + C7 + C8 + C17 + C18 - C20 - C21 - C23 - C27 - C28
   - C37 - C38 >= -64
 R126: C1 + C3 + C8 + C11 + C17 + C18 - C21 - C23 - C28 - C31 - C37 - C38
   >= -82
 R127: C1 + C2 + C3 + C8 + C15 + C17 + C18 - C21 - C22 - C23 - C28 - C35
   - C37 - C38 >= -66
 R128: C1 + C3 + C8 + C17 + C18 + C19 - C21 - C23 - C28 - C37 - C38 - C39
   >= -53
 R129: C0 + C2 + C5 + C6 + C7 + C12 - C20 - C22 - C25 - C26 - C27 - C32
   >= -28
 R130: C0 + C1 + C2 + C5 + C6 + C11 + C12 - C20 - C21 - C22 - C25 - C26
   - C31 - C32 >= -66
 R131: C0 + C2 + C5 + C6 + C12 + C15 - C20 - C22 - C25 - C26 - C32 - C35
   >= -30
 R132: C0 + C2 + C3 + C5 + C6 + C12 + C19 - C20 - C22 - C23 - C25 - C26
   - C32 - C39 >= -37
 R133: C0 + C1 + C2 + C5 + C7 + C10 + C12 - C20 - C21 - C22 - C25 - C27
   - C30 - C32 >= -12
 R134: C0 + C1 + C2 + C5 + C10 + C11 + C12 - C20 - C21 - C22 - C25 - C30
   - C31 - C32 >= -40
 R135: C0 + C1 + C2 + C5 + C10 + C12 + C15 - C20 - C21 - C22 - C25 - C30
   - C32 - C35 >= -14
 R136: C0 + C1 + C2 + C3 + C5 + C10 + C12 + C19 - C20 - C21 - C22 - C23
   - C25 - C30 - C32 - C39 >= -21
 R137: C0 + C2 + C5 + C7 + C12 + C14 - C20 - C22 - C25 - C27 - C32 - C34
   >= -1
 R138: C0 + C1 + C2 + C5 + C11 + C12 + C14 - C20 - C21 - C22 - C25 - C31
   - C32 - C34 >= -39
 R139: C0 + C2 + C5 + C12 + C14 + C15 - C20 - C22 - C25 - C32 - C34 - C35
   >= -3
 R140: C0 + C2 + C3 + C5 + C12 + C14 + C19 - C20 - C22 - C23 - C25 - C32
   - C34 - C39 >= -10
 R141: C0 + C2 + C3 + C5 + C7 + C12 + C18 - C20 - C22 - C23 - C25 - C27
   - C32 - C38 >= -38
 R142: C0 + C1 + C2 + C3 + C5 + C11 + C12 + C18 - C20 - C21 - C22 - C23
   - C25 - C31 - C32 - C38 >= -76
 R143: C0 + C2 + C3 + C5 + C12 + C15 + C18 - C20 - C22 - C23 - C25 - C32
   - C35 - C38 >= -40
 R144: C0 + C2 + C3 + C5 + C12 + C18 + C19 - C20 - C22 - C23 - C25 - C32
   - C38 - C39 >= -37
 R145: C0 + C1 + C2 + C6 + C7 + C9 + C12 - C20 - C21 - C22 - C26 - C27
   - C29 - C32 >= -36
 R146: C0 + C1 + C2 + C6 + C9 + C11 + C12 - C20 - C21 - C22 - C26 - C29
   - C31 - C32 >= -64
 R147: C0 + C1 + C2 + C6 + C9 + C12 + C15 - C20 - C21 - C22 - C26 - C29
   - C32 - C35 >= -38
 R148: C0 + C1 + C2 + C3 + C6 + C9 + C12 + C19 - C20 - C21 - C22 - C23
   - C26 - C29 - C32 - C39 >= -45
 R149: C0 + C1 + C2 + C7 + C9 + C10 + C12 - C20 - C21 - C22 - C27 - C29
   - C30 - C32 >= -10
 R150: C1 + C2 + C9 + C10 + C11 + C12 - C21 - C22 - C29 - C30 - C31 - C32
   >= -28
 R151: C1 + C2 + C9 + C10 + C12 + C15 - C21 - C22 - C29 - C30 - C32 - C35
   >= -2
 R152: C1 + C2 + C3 + C9 + C10 + C12 + C19 - C21 - C22 - C23 - C29 - C30
   - C32 - C39 >= -9
 R153: C0 + C1 + C2 + C7 + C9 + C12 + C14 - C20 - C21 - C22 - C27 - C29
   - C32 - C34 >= -9
 R154: C1 + C2 + C9 + C11 + C12 + C14 - C21 - C22 - C29 - C31 - C32 - C34
   >= -27
 R155: C1 + C2 + C9 + C12 + C14 + C15 - C21 - C22 - C29 - C32 - C34 - C35
   >= -1
 R156: C1 + C2 + C3 + C9 + C12 + C14 + C19 - C21 - C22 - C23 - C29 - C32
   - C34 - C39 >= -8
 R157: C0 + C1 + C2 + C3 + C7 + C9 + C12 + C18 - C20 - C21 - C22 - C23
   - C27 - C29 - C32 - C38 >= -46
 R158: C1 + C2 + C3 + C9 + C11 + C12 + C18 - C21 - C22 - C23 - C29 - C31
   - C32 - C38 >= -64
 R159: C1 + C2 + C3 + C9 + C12 + C15 + C18 - C21 - C22 - C23 - C29 - C32
   - C35 - C38 >= -38
 R160: C1 + C2 + C3 + C9 + C12 + C18 + C19 - C21 - C22 - C23 - C29 - C32
   - C38 - C39 >= -35
 R161: C0 + C2 + C6 + C7 + C12 + C13 - C20 - C22 - C26 - C27 - C32 - C33
   >= -55
 R162: C0 + C1 + C2 + C6 + C11 + C12 + C13 - C20 - C21 - C22 - C26 - C31
   - C32 - C33 >= -93
 R163: C0 + C2 + C6 + C12 + C13 + C15 - C20 - C22 - C26 - C32 - C33 - C35
   >= -57
 R164: C0 + C2 + C3 + C6 + C12 + C13 + C19 - C20 - C22 - C23 - C26 - C32
   - C33 - C39 >= -64
 R165: C0 + C1 + C2 + C7 + C10 + C12 + C13 - C20 - C21 - C22 - C27 - C30
   - C32 - C33 >= -39
 R166: C1 + C2 + C10 + C11 + C12 + C13 - C21 - C22 - C30 - C31 - C32 - C33
   >= -57
 R167: C1 + C2 + C10 + C12 + C13 + C15 - C21 - C22 - C30 - C32 - C33 - C35
   >= -31
 R168: C1 + C2 + C3 + C10 + C12 + C13 + C19 - C21 - C22 - C23 - C30 - C32
   - C33 - C39 >= -38
 R169: C0 + C2 + C7 + C12 + C13 + C14 - C20 - C22 - C27 - C32 - C33 - C34
   >= -28
 R170: C1 + C2 + C11 + C12 + C13 + C14 - C21 - C22 - C31 - C32 - C33 - C34
   >= -56
 R171: C2 + C12 + C13 + C14 + C15 - C22 - C32 - C33 - C34 - C35 >= -20
 R172: C2 + C3 + C12 + C13 + C14 + C19 - C22 - C23 - C32 - C33 - C34 - C39
   >= -27
 R173: C0 + C2 + C3 + C7 + C12 + C13 + C18 - C20 - C22 - C23 - C27 - C32
   - C33 - C38 >= -65
 R174: C1 + C2 + C3 + C11 + C12 + C13 + C18 - C21 - C22 - C23 - C31 - C32
   - C33 - C38 >= -93
 R175: C2 + C3 + C12 + C13 + C15 + C18 - C22 - C23 - C32 - C33 - C35 - C38
   >= -57
 R176: C2 + C3 + C12 + C13 + C18 + C19 - C22 - C23 - C32 - C33 - C38 - C39
   >= -54
 R177: C0 + C2 + C3 + C6 + C7 + C12 + C17 - C20 - C22 - C23 - C26 - C27
   - C32 - C37 >= -37
 R178: C0 + C1 + C2 + C3 + C6 + C11 + C12 + C17 - C20 - C21 - C22 - C23
   - C26 - C31 - C32 - C37 >= -75
 R179: C0 + C2 + C3 + C6 + C12 + C15 + C17 - C20 - C22 - C23 - C26 - C32
   - C35 - C37 >= -39
 R180: C0 + C2 + C3 + C6 + C12 + C17 + C19 - C20 - C22 - C23 - C26 - C32
   - C37 - C39 >= -36
 R181: C0 + C1 + C2 + C3 + C7 + C10 + C12 + C17 - C20 - C21 - C22 - C23
   - C27 - C30 - C32 - C37 >= -21
 R182: C1 + C2 + C3 + C10 + C11 + C12 + C17 - C21 - C22 - C23 - C30 - C31
   - C32 - C37 >= -39
 R183: C1 + C2 + C3 + C10 + C12 + C15 + C17 - C21 - C22 - C23 - C30 - C32
   - C35 - C37 >= -13
 R184: C1 + C2 + C3 + C10 + C12 + C17 + C19 - C21 - C22 - C23 - C30 - C32
   - C37 - C39 >= -10
 R185: C0 + C2 + C3 + C7 + C12 + C14 + C17 - C20 - C22 - C23 - C27 - C32
   - C34 - C37 >= -10
 R186: C1 + C2 + C3 + C11 + C12 + C14 + C17 - C21 - C22 - C23 - C31 - C32
   - C34 - C37 >= -38
 R187: C2 + C3 + C12 + C14 + C15 + C17 - C22 - C23 - C32 - C34 - C35 - C37
   >= -2
 R188: C2 + C3 + C12 + C14 + C17 + C19 - C22 - C23 - C32 - C34 - C37 - C39
   >= 1
 R189: C0 + C2 + C3 + C7 + C12 + C17 + C18 - C20 - C22 - C23 - C27 - C32
   - C37 - C38 >= -37
 R190: C1 + C2 + C3 + C11 + C12 + C17 + C18 - C21 - C22 - C23 - C31 - C32
   - C37 - C38 >= -65
 R191: C2 + C3 + C12 + C15 + C17 + C18 - C22 - C23 - C32 - C35 - C37 - C38
   >= -29
 R192: C2 + C3 + C12 + C17 + C18 + C19 - C22 - C23 - C32 - C37 - C38 - C39
   >= -26
 R193: C0 + C3 + C5 + C6 + C7 + C16 - C20 - C23 - C25 - C26 - C27 - C36
   >= -55
 R194: C0 + C1 + C3 + C5 + C6 + C11 + C16 - C20 - C21 - C23 - C25 - C26
   - C31 - C36 >= -93
 R195: C0 + C2 + C3 + C5 + C6 + C15 + C16 - C20 - C22 - C23 - C25 - C26
   - C35 - C36 >= -67
 R196: C0 + C3 + C5 + C6 + C16 + C19 - C20 - C23 - C25 - C26 - C36 - C39
   >= -54
 R197: C0 + C1 + C3 + C5 + C7 + C10 + C16 - C20 - C21 - C23 - C25 - C27
   - C30 - C36 >= -39
 R198: C0 + C1 + C3 + C5 + C10 + C11 + C16 - C20 - C21 - C23 - C25 - C30
   - C31 - C36 >= -67
 R199: C0 + C1 + C2 + C3 + C5 + C10 + C15 + C16 - C20 - C21 - C22 - C23
   - C25 - C30 - C35 - C36 >= -51
 R200: C0 + C1 + C3 + C5 + C10 + C16 + C19 - C20 - C21 - C23 - C25 - C30
   - C36 - C39 >= -38
 R201: C0 + C2 + C3 + C5 + C7 + C14 + C16 - C20 - C22 - C23 - C25 - C27
   - C34 - C36 >= -38
 R202: C0 + C1 + C2 + C3 + C5 + C11 + C14 + C16 - C20 - C21 - C22 - C23
   - C25 - C31 - C34 - C36 >= -76
 R203: C0 + C2 + C3 + C5 + C14 + C15 + C16 - C20 - C22 - C23 - C25 - C34
   - C35 - C36 >= -40
 R204: C0 + C2 + C3 + C5 + C14 + C16 + C19 - C20 - C22 - C23 - C25 - C34
   - C36 - C39 >= -37
 R205: C0 + C3 + C5 + C7 + C16 + C18 - C20 - C23 - C25 - C27 - C36 - C38
   >= -55
 R206: C0 + C1 + C3 + C5 + C11 + C16 + C18 - C20 - C21 - C23 - C25 - C31
   - C36 - C38 >= -93
 R207: C0 + C2 + C3 + C5 + C15 + C16 + C18 - C20 - C22 - C23 - C25 - C35
   - C36 - C38 >= -67
 R208: C0 + C3 + C5 + C16 + C18 + C19 - C20 - C23 - C25 - C36 - C38 - C39
   >= -54
 R209: C0 + C1 + C3 + C6 + C7 + C9 + C16 - C20 - C21 - C23 - C26 - C27
   - C29 - C36 >= -63
 R210: C0 + C1 + C3 + C6 + C9 + C11 + C16 - C20 - C21 - C23 - C26 - C29
   - C31 - C36 >= -91
 R211: C0 + C1 + C2 + C3 + C6 + C9 + C15 + C16 - C20 - C21 - C22 - C23
   - C26 - C29 - C35 - C36 >= -75
 R212: C0 + C1 + C3 + C6 + C9 + C16 + C19 - C20 - C21 - C23 - C26 - C29
   - C36 - C39 >= -62
 R213: C0 + C1 + C3 + C7 + C9 + C10 + C16 - C20 - C21 - C23 - C27 - C29
   - C30 - C36 >= -37
 R214: C1 + C3 + C9 + C10 + C11 + C16 - C21 - C23 - C29 - C30 - C31 - C36
   >= -55
 R215: C1 + C2 + C3 + C9 + C10 + C15 + C16 - C21 - C22 - C23 - C29 - C30
   - C35 - C36 >= -39
 R216: C1 + C3 + C9 + C10 + C16 + C19 - C21 - C23 - C29 - C30 - C36 - C39
   >= -26
 R217: C0 + C1 + C2 + C3 + C7 + C9 + C14 + C16 - C20 - C21 - C22 - C23
   - C27 - C29 - C34 - C36 >= -46
 R218: C1 + C2 + C3 + C9 + C11 + C14 + C16 - C21 - C22 - C23 - C29 - C31
   - C34 - C36 >= -64
 R219: C1 + C2 + C3 + C9 + C14 + C15 + C16 - C21 - C22 - C23 - C29 - C34
   - C35 - C36 >= -38
 R220: C1 + C2 + C3 + C9 + C14 + C16 + C19 - C21 - C22 - C23 - C29 - C34
   - C36 - C39 >= -35
 R221: C0 + C1 + C3 + C7 + C9 + C16 + C18 - C20 - C21 - C23 - C27 - C29
   - C36 - C38 >= -63
 R222: C1 + C3 + C9 + C11 + C16 + C18 - C21 - C23 - C29 - C31 - C36 - C38
   >= -81
 R223: C1 + C2 + C3 + C9 + C15 + C16 + C18 - C21 - C22 - C23 - C29 - C35
   - C36 - C38 >= -65
 R224: C1 + C3 + C9 + C16 + C18 + C19 - C21 - C23 - C29 - C36 - C38 - C39
   >= -52
 R225: C0 + C2 + C3 + C6 + C7 + C13 + C16 - C20 - C22 - C23 - C26 - C27
   - C33 - C36 >= -92
 R226: C0 + C1 + C2 + C3 + C6 + C11 + C13 + C16 - C20 - C21 - C22 - C23
   - C26 - C31 - C33 - C36 >= -130
 R227: C0 + C2 + C3 + C6 + C13 + C15 + C16 - C20 - C22 - C23 - C26 - C33
   - C35 - C36 >= -94
 R228: C0 + C2 + C3 + C6 + C13 + C16 + C19 - C20 - C22 - C23 - C26 - C33
   - C36 - C39 >= -91
 R229: C0 + C1 + C2 + C3 + C7 + C10 + C13 + C16 - C20 - C21 - C22 - C23
   - C27 - C30 - C33 - C36 >= -76
 R230: C1 + C2 + C3 + C10 + C11 + C13 + C16 - C21 - C22 - C23 - C30 - C31
   - C33 - C36 >= -94
 R231: C1 + C2 + C3 + C10 + C13 + C15 + C16 - C21 - C22 - C23 - C30 - C33
   - C35 - C36 >= -68
 R232: C1 + C2 + C3 + C10 + C13 + C16 + C19 - C21 - C22 - C23 - C30 - C33
   - C36 - C39 >= -65
 R233: C0 + C2 + C3 + C7 + C13 + C14 + C16 - C20 - C22 - C23 - C27 - C33
   - C34 - C36 >= -65
 R234: C1 + C2 + C3 + C11 + C13 + C14 + C16 - C21 - C22 - C23 - C31 - C33
   - C34 - C36 >= -93
 R235: C2 + C3 + C13 + C14 + C15 + C16 - C22 - C23 - C33 - C34 - C35 - C36
   >= -57
 R236: C2 + C3 + C13 + C14 + C16 + C19 - C22 - C23 - C33 - C34 - C36 - C39
   >= -54
 R237: C0 + C2 + C3 + C7 + C13 + C16 + C18 - C20 - C22 - C23 - C27 - C33
   - C36 - C38 >= -92
 R238: C1 + C2 + C3 + C11 + C13 + C16 + C18 - C21 - C22 - C23 - C31 - C33
   - C36 - C38 >= -120
 R239: C2 + C3 + C13 + C15 + C16 + C18 - C22 - C23 - C33 - C35 - C36 - C38
   >= -84
 R240: C2 + C3 + C13 + C16 + C18 + C19 - C22 - C23 - C33 - C36 - C38 - C39
   >= -81
 R241: C0 + C3 + C6 + C7 + C16 + C17 - C20 - C23 - C26 - C27 - C36 - C37
   >= -54
 R242: C0 + C1 + C3 + C6 + C11 + C16 + C17 - C20 - C21 - C23 - C26 - C31
   - C36 - C37 >= -92
 R243: C0 + C2 + C3 + C6 + C15 + C16 + C17 - C20 - C22 - C23 - C26 - C35
   - C36 - C37 >= -66
 R244: C0 + C3 + C6 + C16 + C17 + C19 - C20 - C23 - C26 - C36 - C37 - C39
   >= -53
 R245: C0 + C1 + C3 + C7 + C10 + C16 + C17 - C20 - C21 - C23 - C27 - C30
   - C36 - C37 >= -38
 R246: C1 + C3 + C10 + C11 + C16 + C17 - C21 - C23 - C30 - C31 - C36 - C37
   >= -56
 R247: C1 + C2 + C3 + C10 + C15 + C16 + C17 - C21 - C22 - C23 - C30 - C35
   - C36 - C37 >= -40
 R248: C1 + C3 + C10 + C16 + C17 + C19 - C21 - C23 - C30 - C36 - C37 - C39
   >= -27
 R249: C0 + C2 + C3 + C7 + C14 + C16 + C17 - C20 - C22 - C23 - C27 - C34
   - C36 - C37 >= -37
 R250: C1 + C2 + C3 + C11 + C14 + C16 + C17 - C21 - C22 - C23 - C31 - C34
   - C36 - C37 >= -65
 R251: C2 + C3 + C14 + C15 + C16 + C17 - C22 - C23 - C34 - C35 - C36 - C37
   >= -29
 R252: C2 + C3 + C14 + C16 + C17 + C19 - C22 - C23 - C34 - C36 - C37 - C39
   >= -26
 R253: C0 + C3 + C7 + C16 + C17 + C18 - C20 - C23 - C27 - C36 - C37 - C38
   >= -54
 R254: C1 + C3 + C11 + C16 + C17 + C18 - C21 - C23 - C31 - C36 - C37 - C38
   >= -82
 R255: C2 + C3 + C15 + C16 + C17 + C18 - C22 - C23 - C35 - C36 - C37 - C38
   >= -56
 R256: C3 + C16 + C17 + C18 + C19 - C23 - C36 - C37 - C38 - C39 >= -43
Bounds
End
